# Solution for model GasLib-40
# Objective value = 4.3848086297832140e+01
loadshed[innode_1] 0
loadshed[innode_2] 0
loadshed[innode_3] 0
loadshed[innode_4] 0
loadshed[innode_5] 0
loadshed[innode_6] 0
loadshed[innode_7] 0
loadshed[innode_8] 0
loadshed[source_1] -2.1303660236090316e-01
loadshed[source_2] 1.6344663871926368e-01
loadshed[source_3] 3.2695101907243784e-01
loadshed[sink_1] 0
loadshed[sink_2] 0
loadshed[sink_3] 0
loadshed[sink_4] 0
loadshed[sink_5] 0
loadshed[sink_6] 0
loadshed[sink_7] 0
loadshed[sink_8] 0
loadshed[sink_9] 0
loadshed[sink_10] 0
loadshed[sink_11] 0
loadshed[sink_12] 1
loadshed[sink_13] 0
loadshed[sink_14] 0
loadshed[sink_15] 0
loadshed[sink_16] 0
loadshed[sink_17] 0
loadshed[sink_18] 0
loadshed[sink_19] 0
loadshed[sink_20] 0
loadshed[sink_21] 1
loadshed[sink_22] 0
loadshed[sink_23] 0
loadshed[sink_24] 6.8115686916680607e-01
loadshed[sink_25] 0
loadshed[sink_26] 0
loadshed[sink_27] 0
loadshed[sink_28] 0
loadshed[sink_29] 0
flow[source_1,sink_3] 1.9176929342184695e+02
flow[innode_1,sink_16] 1.6354166666666970e+01
flow[innode_6,sink_13] 8.07666631379172
flow[sink_13,sink_14] -8.2775003528749487e+00
flow[sink_14,sink_10] -2.4631667019541617e+01
flow[sink_25,sink_26] 1.2226699811993456e+02
flow[sink_26,sink_9] 1.6354166666669244e+01
flow[sink_9,sink_18] 0
flow[sink_26,sink_4] 8.9558664786598641e+01
flow[sink_4,sink_20] -1.5232016912936903e+01
flow[sink_18,sink_6] -1.6354166666667879e+01
flow[sink_25,innode_8] -1.5906096008851060e+02
flow[sink_6,sink_7] -6.5416666666666671e+01
flow[sink_6,sink_22] 3.2708333333333641e+01
flow[sink_7,sink_24] 5.2144137021678567e+00
flow[sink_22,sink_1] 1.6354166666666970e+01
flow[sink_24,sink_21] 0
flow[sink_21,sink_12] 0
flow[sink_7,sink_5] -8.6985247035502709e+01
flow[sink_5,sink_17] -1.0333941370216938e+02
flow[sink_17,sink_4] -8.8436515032868869e+01
flow[sink_17,sink_8] -3.1257065335967166e+01
flow[sink_3,sink_23] 16.3541666666697
flow[sink_8,sink_20] -4.7611232002633834e+01
flow[sink_25,sink_20] 7.9197415582237369e+01
flow[sink_25,sink_15] -6.6834286594120229e+01
flow[sink_15,sink_29] -9.9542619927471151e+01
flow[sink_29,sink_28] 1.6354166666667879e+01
flow[sink_29,sink_2] 0
flow[sink_2,sink_15] -1.6354166666684250e+01
flow[sink_29,innode_7] -1.3225095326080529e+02
flow[innode_4,sink_19] 9.0048333686208849e+01
flow[sink_19,innode_3] 3.5962442442626575e+01
flow[innode_4,innode_5] 1.6354166666679703e+01
flow[sink_27,innode_5] -1.6354166666679703e+01
flow[sink_27,sink_19] 0
flow[sink_10,sink_11] 3.2708333333333641e+01
flow[sink_10,innode_2] -3.7731724576915347e+01
flow[sink_10,innode_3] -3.5962442442626575e+01
flow[innode_6,sink_25] -8.07666631379172
flow[sink_11,innode_1] 1.6354166666666970e+01
flow[sink_19,innode_2] 3.7731724576915347e+01
flow[source_3,innode_4] 1.0640250035288855e+02
flow[source_2,innode_7] 1.3225095326080529e+02
flow[sink_3,innode_8] 1.5906096008851060e+02
pressure[innode_1] 7.5219183769289856e+01
pressure[innode_2] 7.7365162557909727e+01
pressure[innode_3] 7.7285527801425360e+01
pressure[innode_4] 81.01325
pressure[innode_5] 8.1002000741808786e+01
pressure[innode_6] 74.2355538330088
pressure[innode_7] 81.01325
pressure[innode_8] 8.0372238510616185e+01
pressure[source_1] 81.01325
pressure[source_2] 81.01325
pressure[source_3] 81.01325
pressure[sink_1] 3.9842726430542372e+00
pressure[sink_2] 7.4506372498011984e+01
pressure[sink_3] 8.0372238510616185e+01
pressure[sink_4] 5.4237640529707853e+01
pressure[sink_5] 4.3159849173470796e+01
pressure[sink_6] 6.0853502534416108e+00
pressure[sink_7] 6.9833651570418018e+00
pressure[sink_8] 5.2037298814530814e+01
pressure[sink_9] 6.4645521874905484e+01
pressure[sink_10] 75.3708850768934
pressure[sink_11] 7.5219183769289856e+01
pressure[sink_12] 1.01325
pressure[sink_13] 7.4191028521357183e+01
pressure[sink_14] 7.4205841813325776e+01
pressure[sink_15] 7.4559765247778429e+01
pressure[sink_16] 7.4197533934472176e+01
pressure[sink_17] 5.0857888535545861e+01
pressure[sink_18] 5.6486453106883712e+00
pressure[sink_19] 7.7365162557909727e+01
pressure[sink_20] 5.5355132115454111e+01
pressure[sink_21] 1.01325
pressure[sink_22] 5.0480417854092474e+00
pressure[sink_23] 80.2075204989564
pressure[sink_24] 1.01325
pressure[sink_25] 74.2355538330088
pressure[sink_26] 65.6243609588479
pressure[sink_27] 8.0866291377726043e+01
pressure[sink_28] 7.7180772819170443e+01
pressure[sink_29] 7.7476055092787618e+01
interdiction[source_1,sink_3] 0
interdiction[innode_1,sink_16] 0
interdiction[innode_6,sink_13] 0
interdiction[sink_13,sink_14] 0
interdiction[sink_14,sink_10] 0
interdiction[sink_25,sink_26] 0
interdiction[sink_26,sink_9] 0
interdiction[sink_9,sink_18] 1
interdiction[sink_26,sink_4] 0
interdiction[sink_4,sink_20] 0
interdiction[sink_18,sink_6] 0
interdiction[sink_25,innode_8] 0
interdiction[sink_6,sink_7] 0
interdiction[sink_6,sink_22] 0
interdiction[sink_7,sink_24] 0
interdiction[sink_22,sink_1] 0
interdiction[sink_24,sink_21] 0
interdiction[sink_21,sink_12] 0
interdiction[sink_7,sink_5] 0
interdiction[sink_5,sink_17] 0
interdiction[sink_17,sink_4] 0
interdiction[sink_17,sink_8] 0
interdiction[sink_3,sink_23] 0
interdiction[sink_8,sink_20] 0
interdiction[sink_25,sink_20] 0
interdiction[sink_25,sink_15] 0
interdiction[sink_15,sink_29] 0
interdiction[sink_29,sink_28] 0
interdiction[sink_29,sink_2] 1
interdiction[sink_2,sink_15] 0
interdiction[sink_29,innode_7] 0
interdiction[innode_4,sink_19] 0
interdiction[sink_19,innode_3] 0
interdiction[innode_4,innode_5] 0
interdiction[sink_27,innode_5] 0
interdiction[sink_27,sink_19] 1
interdiction[sink_10,sink_11] 0
interdiction[sink_10,innode_2] 0
interdiction[sink_10,innode_3] 0
interdiction[innode_6,sink_25] 0
interdiction[sink_11,innode_1] 0
interdiction[sink_19,innode_2] 0
interdiction[source_3,innode_4] 0
interdiction[source_2,innode_7] 0
interdiction[sink_3,innode_8] 0
WCcheckFlow[source_1,sink_3] 39
WCcheckFlow[innode_1,sink_16] 1
WCcheckFlow[innode_6,sink_13] 13
WCcheckFlow[sink_13,sink_14] 12
WCcheckFlow[sink_14,sink_10] 11
WCcheckFlow[sink_25,sink_26] 15
WCcheckFlow[sink_26,sink_9] 1
WCcheckFlow[sink_9,sink_18] 0
WCcheckFlow[sink_26,sink_4] 13
WCcheckFlow[sink_4,sink_20] 1
WCcheckFlow[sink_18,sink_6] -1
WCcheckFlow[sink_25,innode_8] -36
WCcheckFlow[sink_6,sink_7] -4
WCcheckFlow[sink_6,sink_22] 2
WCcheckFlow[sink_7,sink_24] 3
WCcheckFlow[sink_22,sink_1] 1
WCcheckFlow[sink_24,sink_21] 2
WCcheckFlow[sink_21,sink_12] 1
WCcheckFlow[sink_7,sink_5] -8
WCcheckFlow[sink_5,sink_17] -9
WCcheckFlow[sink_17,sink_4] -11
WCcheckFlow[sink_17,sink_8] 1
WCcheckFlow[sink_3,sink_23] 1
WCcheckFlow[sink_8,sink_20] 0
WCcheckFlow[sink_25,sink_20] 0
WCcheckFlow[sink_25,sink_15] 6
WCcheckFlow[sink_15,sink_29] 4
WCcheckFlow[sink_29,sink_28] 1
WCcheckFlow[sink_29,sink_2] 0
WCcheckFlow[sink_2,sink_15] -1
WCcheckFlow[sink_29,innode_7] 2
WCcheckFlow[innode_4,sink_19] -4
WCcheckFlow[sink_19,innode_3] -5
WCcheckFlow[innode_4,innode_5] 2
WCcheckFlow[sink_27,innode_5] -1
WCcheckFlow[sink_27,sink_19] 0
WCcheckFlow[sink_10,sink_11] 3
WCcheckFlow[sink_10,innode_2] 1
WCcheckFlow[sink_10,innode_3] 6
WCcheckFlow[innode_6,sink_25] -14
WCcheckFlow[sink_11,innode_1] 2
WCcheckFlow[sink_19,innode_2] 0
WCcheckFlow[source_3,innode_4] -1
WCcheckFlow[source_2,innode_7] -1
WCcheckFlow[sink_3,innode_8] 37
